p cnf 90 300
c 38 36 36 38 38 38 38 38 

-1 -2 0
-1 -3 0
-2 -3 0
1 2 3 0
-4 -5 0
-4 -6 0
-5 -6 0
4 5 6 0
-7 -8 0
-7 -9 0
-8 -9 0
7 8 9 0
-4 -10 0
-5 -11 0
-6 -12 0
-5 -13 0
-6 -14 0
-8 -15 0
-9 -16 0
-17 -1 0
-18 -2 0
-19 -3 0
-4 -1 0
-5 -2 0
-6 -3 0
-7 -1 0
-8 -2 0
-9 -3 0
-20 -1 0
-21 -2 0
-7 -22 0
-8 -23 0
-9 -24 0
-25 -4 0
-26 -5 0
-27 -4 0
-28 -5 0
-29 -6 0
-30 -31 0
-30 -32 0
-31 -32 0
30 31 32 0
-33 -34 0
-33 -35 0
-34 -35 0
33 34 35 0
-36 -37 0
-36 -38 0
-37 -38 0
36 37 38 0
-36 -39 0
-37 -40 0
-38 -41 0
-36 -1 0
-37 -2 0
-38 -3 0
-42 -30 0
-43 -30 0
-44 -31 0
-45 -32 0
-46 -30 0
-47 -31 0
-48 -32 0
-36 -30 0
-37 -31 0
-38 -32 0
-36 -33 0
-37 -34 0
-38 -35 0
-36 -49 0
-37 -50 0
-36 -4 0
-37 -5 0
-38 -6 0
-51 -15 0
-51 -16 0
-15 -16 0
51 15 16 0
-49 -50 0
-49 -52 0
-50 -52 0
49 50 52 0
-25 -26 0
-25 -53 0
-26 -53 0
25 26 53 0
-25 -54 0
-26 -55 0
-53 -56 0
-26 -57 0
-53 -58 0
-23 -15 0
-24 -16 0
-59 -51 0
-60 -15 0
-49 -51 0
-50 -15 0
-52 -16 0
-7 -51 0
-21 -15 0
-25 -51 0
-26 -15 0
-53 -16 0
-21 -50 0
-61 -52 0
-38 -52 0
-25 -49 0
-26 -50 0
-53 -52 0
-53 -6 0
-62 -63 0
-62 -64 0
-63 -64 0
62 63 64 0
-65 -57 0
-65 -58 0
-57 -58 0
65 57 58 0
-39 -40 0
-39 -41 0
-40 -41 0
39 40 41 0
-22 -23 0
-22 -24 0
-23 -24 0
22 23 24 0
-46 -47 0
-46 -48 0
-47 -48 0
46 47 48 0
-22 -62 0
-23 -63 0
-24 -64 0
-66 -63 0
-46 -65 0
-47 -57 0
-48 -58 0
-67 -65 0
-68 -57 0
-69 -58 0
-25 -65 0
-22 -39 0
-23 -40 0
-24 -41 0
-46 -39 0
-47 -40 0
-48 -41 0
-22 -51 0
-70 -71 0
-70 -72 0
-71 -72 0
70 71 72 0
-73 -74 0
-73 -75 0
-74 -75 0
73 74 75 0
-59 -60 0
-59 -76 0
-60 -76 0
59 60 76 0
-20 -21 0
-20 -61 0
-21 -61 0
20 21 61 0
-76 -16 0
-20 -51 0
-61 -16 0
-73 -1 0
-74 -2 0
-75 -3 0
-61 -3 0
-73 -70 0
-74 -71 0
-75 -72 0
-59 -70 0
-60 -71 0
-76 -72 0
-20 -73 0
-21 -74 0
-61 -75 0
-67 -73 0
-77 -60 0
-20 -59 0
-21 -60 0
-61 -76 0
-20 -49 0
-10 -11 0
-10 -12 0
-11 -12 0
10 11 12 0
-17 -18 0
-17 -19 0
-18 -19 0
17 18 19 0
-78 -79 0
-78 -80 0
-79 -80 0
78 79 80 0
-81 -77 0
-81 -82 0
-77 -82 0
81 77 82 0
-17 -10 0
-18 -11 0
-19 -12 0
-83 -10 0
-66 -11 0
-81 -10 0
-77 -11 0
-82 -12 0
-78 -70 0
-79 -71 0
-80 -72 0
-79 -84 0
-81 -59 0
-82 -76 0
-78 -17 0
-79 -18 0
-80 -19 0
-81 -17 0
-77 -18 0
-82 -19 0
-81 -83 0
-77 -66 0
-54 -55 0
-54 -56 0
-55 -56 0
54 55 56 0
-85 -13 0
-85 -14 0
-13 -14 0
85 13 14 0
-43 -44 0
-43 -45 0
-44 -45 0
43 44 45 0
-27 -28 0
-27 -29 0
-28 -29 0
27 28 29 0
-43 -54 0
-44 -55 0
-45 -56 0
-86 -54 0
-87 -55 0
-88 -56 0
-43 -85 0
-44 -13 0
-45 -14 0
-83 -85 0
-4 -85 0
-20 -85 0
-21 -13 0
-61 -14 0
-87 -13 0
-88 -14 0
-27 -85 0
-28 -13 0
-29 -14 0
-27 -43 0
-28 -44 0
-29 -45 0
-42 -84 0
-42 -89 0
-84 -89 0
42 84 89 0
-83 -66 0
-83 -90 0
-66 -90 0
83 66 90 0
-67 -68 0
-67 -69 0
-68 -69 0
67 68 69 0
-86 -87 0
-86 -88 0
-87 -88 0
86 87 88 0
-83 -62 0
-90 -64 0
-90 -12 0
-66 -13 0
-90 -14 0
-86 -85 0
-84 -31 0
-89 -32 0
-78 -42 0
-80 -89 0
-67 -42 0
-68 -84 0
-69 -89 0
-86 -42 0
-87 -84 0
-88 -89 0
-68 -74 0
-69 -75 0
-82 -90 0
-67 -83 0
-68 -66 0
-69 -90 0
